c generated by ere2max.py
c max 6 7 8 9 10 0
c ind 1 2 3 4 5 0
p cnf 10 20
-5 8 -10 0
-1 3 -10 0
-1 4 -9 0
-3 5 -8 0
3 -6 -9 0
-6 -7 -9 0
-3 4 -10 0
-4 6 -10 0
1 -5 -7 0
3 8 9 0
2 -7 8 0
-2 4 -6 0
-3 -8 10 0
-3 7 8 0
2 -3 -8 0
-2 3 10 0
5 -8 9 0
-3 4 8 0
-2 -5 -10 0
-4 9 -10 0
